(set-option :print-success false)
(set-logic QF_UF)
(declare-sort x155 0)
(declare-sort x116 0)
(declare-fun x123 (x116 x116) x116)
(declare-fun x124 () x116)
(declare-fun x106 (x116 x116) x116)
(declare-fun x20 () x116)
(declare-fun x114 () x116)
(declare-fun x80 () x116)
(declare-fun x73 () x116)
(assert (and (and (not (= (x106 (x106 x73 x73) x73) x73)) (and (and (not (= x20 (x106 (x106 x20 x20) x20))) (not (= x124 (x106 (x106 x124 x124) x124)))) (not (= x80 (x106 (x106 x80 x80) x80))))) (not (= x114 (x106 (x106 x114 x114) x114)))))
(assert (or (or (or (or (= (x106 x20 (x106 x20 x20)) x20) (= (x106 x124 (x106 x124 x124)) x124)) (= x80 (x106 x80 (x106 x80 x80)))) (= x73 (x106 x73 (x106 x73 x73)))) (= (x106 x114 (x106 x114 x114)) x114)))
(assert (let ((x120 (x106 x73 x73)) (x136 (x106 x114 x114)) (x22 (x106 x124 x124)) (x137 (x106 x20 x20)) (x91 (x106 x80 x80))) (or (= (x106 x136 x136) x114) (or (or (or (= (x106 x137 x137) x20) (= x124 (x106 x22 x22))) (= (x106 x91 x91) x80)) (= (x106 x120 x120) x73)))))
(assert (or (or (or (and (and (and (not (= x80 (x106 x80 (x106 x80 x80)))) (and (not (= x80 (x106 x124 (x106 x80 x124)))) (not (= x80 (x106 x20 (x106 x80 x20)))))) (not (= (x106 x73 (x106 x80 x73)) x80))) (not (= x80 (x106 x114 (x106 x80 x114))))) (or (and (not (= (x106 x114 (x106 x20 x114)) x20)) (and (and (and (not (= x20 (x106 x20 (x106 x20 x20)))) (not (= x20 (x106 x124 (x106 x20 x124))))) (not (= (x106 x80 (x106 x20 x80)) x20))) (not (= x20 (x106 x73 (x106 x20 x73)))))) (and (not (= (x106 x114 (x106 x124 x114)) x124)) (and (and (and (not (= (x106 x20 (x106 x124 x20)) x124)) (not (= x124 (x106 x124 (x106 x124 x124))))) (not (= x124 (x106 x80 (x106 x124 x80))))) (not (= x124 (x106 x73 (x106 x124 x73)))))))) (and (and (not (= x73 (x106 x73 (x106 x73 x73)))) (and (and (not (= (x106 x20 (x106 x73 x20)) x73)) (not (= x73 (x106 x124 (x106 x73 x124))))) (not (= x73 (x106 x80 (x106 x73 x80)))))) (not (= x73 (x106 x114 (x106 x73 x114)))))) (and (and (and (not (= (x106 x80 (x106 x114 x80)) x114)) (and (not (= (x106 x20 (x106 x114 x20)) x114)) (not (= (x106 x124 (x106 x114 x124)) x114)))) (not (= (x106 x73 (x106 x114 x73)) x114))) (not (= (x106 x114 (x106 x114 x114)) x114)))))
(assert (let ((x120 (x106 x73 x73)) (x136 (x106 x114 x114)) (x91 (x106 x80 x80)) (x137 (x106 x20 x20)) (x22 (x106 x124 x124))) (or (and (not (= x114 x136)) (and (not (= x120 x114)) (and (and (not (= x22 x114)) (not (= x114 x137))) (not (= x114 x91))))) (or (or (and (not (= x80 x136)) (and (and (and (not (= x80 x22)) (not (= x137 x80))) (not (= x80 x91))) (not (= x80 x120)))) (or (and (not (= x136 x20)) (and (and (not (= x91 x20)) (and (not (= x137 x20)) (not (= x20 x22)))) (not (= x120 x20)))) (and (and (and (not (= x124 x91)) (and (not (= x124 x22)) (not (= x137 x124)))) (not (= x120 x124))) (not (= x124 x136))))) (and (not (= x73 x136)) (and (not (= x120 x73)) (and (not (= x73 x91)) (and (not (= x22 x73)) (not (= x73 x137))))))))))
(assert (let ((x60 (x106 x20 x20)) (x58 (x106 x73 x20)) (x130 (x106 x73 x80)) (x103 (x106 x124 x20)) (x42 (x106 x124 x124)) (x140 (x106 x114 x73)) (x93 (x106 x80 x124)) (x52 (x106 x20 x73)) (x78 (x106 x80 x73)) (x146 (x106 x114 x124)) (x33 (x106 x80 x114)) (x121 (x106 x20 x114)) (x37 (x106 x114 x80)) (x147 (x106 x80 x80)) (x84 (x106 x114 x114)) (x117 (x106 x73 x114)) (x71 (x106 x124 x80)) (x59 (x106 x20 x80)) (x63 (x106 x73 x73)) (x149 (x106 x80 x20)) (x3 (x106 x124 x73)) (x134 (x106 x20 x124)) (x132 (x106 x114 x20)) (x125 (x106 x124 x114)) (x81 (x106 x73 x124))) (let ((x136 (not (= x124 x93))) (x152 (not (= x124 x52))) (x47 (not (= x146 x114))) (x83 (not (= x20 x59))) (x148 (not (= x134 x20))) (x9 (not (= x80 x37))) (x137 (not (= x134 x124))) (x144 (not (= x124 x140))) (x45 (not (= x130 x124))) (x46 (not (= x3 x73))) (x139 (not (= x60 x20))) (x97 (not (= x80 x84))) (x87 (not (= x37 x73))) (x64 (not (= x20 x125))) (x141 (not (= x37 x124))) (x23 (not (= x78 x20))) (x35 (not (= x20 x81))) (x39 (not (= x33 x124))) (x67 (not (= x59 x80))) (x68 (not (= x20 x42))) (x10 (not (= x80 x125))) (x13 (not (= x80 x130))) (x50 (not (= x71 x73))) (x27 (not (= x60 x73))) (x153 (not (= x140 x114))) (x36 (not (= x58 x124))) (x138 (not (= x20 x63))) (x92 (not (= x93 x80))) (x156 (not (= x147 x80))) (x151 (not (= x130 x73))) (x95 (not (= x42 x114))) (x70 (not (= x59 x124))) (x22 (not (= x42 x124))) (x128 (not (= x124 x146))) (x66 (not (= x58 x80))) (x2 (not (= x80 x121))) (x26 (not (= x80 x33))) (x4 (not (= x20 x130))) (x111 (not (= x42 x80))) (x85 (not (= x60 x114))) (x38 (not (= x134 x80))) (x159 (not (= x42 x73))) (x90 (not (= x124 x3))) (x6 (not (= x3 x80))) (x5 (not (= x73 x132))) (x76 (not (= x81 x114))) (x57 (not (= x147 x124))) (x104 (not (= x73 x121))) (x28 (not (= x132 x20))) (x31 (not (= x84 x20))) (x133 (not (= x80 x103))) (x99 (not (= x117 x73))) (x135 (not (= x125 x114))) (x109 (not (= x59 x73))) (x75 (not (= x124 x84))) (x8 (not (= x117 x80))) (x25 (not (= x71 x114))) (x40 (not (= x80 x63))) (x86 (not (= x58 x20))) (x43 (not (= x80 x149))) (x143 (not (= x20 x146))) (x79 (not (= x20 x52))) (x88 (not (= x73 x149))) (x131 (not (= x114 x134))) (x98 (not (= x80 x146))) (x11 (not (= x149 x20))) (x62 (not (= x124 x132))) (x113 (not (= x3 x114))) (x96 (not (= x124 x63))) (x142 (not (= x80 x60))) (x115 (not (= x114 x121))) (x34 (not (= x73 x147))) (x102 (not (= x114 x59))) (x30 (not (= x149 x114))) (x54 (not (= x58 x114))) (x107 (not (= x114 x84))) (x157 (not (= x114 x103))) (x18 (not (= x73 x84))) (x56 (not (= x71 x124))) (x94 (not (= x73 x140))) (x108 (not (= x81 x73))) (x126 (not (= x73 x78))) (x21 (not (= x132 x114))) (x65 (not (= x140 x80))) (x101 (not (= x114 x93))) (x105 (not (= x146 x73))) (x19 (not (= x20 x33))) (x29 (not (= x52 x73))) (x154 (not (= x33 x114))) (x14 (not (= x20 x147))) (x32 (not (= x73 x103))) (x41 (not (= x20 x121))) (x24 (not (= x124 x125))) (x7 (not (= x71 x80))) (x51 (not (= x80 x132))) (x118 (not (= x71 x20))) (x74 (not (= x3 x20))) (x158 (not (= x63 x73))) (x15 (not (= x114 x37))) (x119 (not (= x78 x124))) (x61 (not (= x140 x20))) (x55 (not (= x80 x78))) (x1 (not (= x93 x20))) (x44 (not (= x80 x81))) (x17 (not (= x130 x114))) (x122 (not (= x125 x73))) (x82 (not (= x124 x81))) (x72 (not (= x124 x117))) (x129 (not (= x73 x58))) (x48 (not (= x114 x147))) (x16 (not (= x20 x37))) (x127 (not (= x52 x114))) (x77 (not (= x124 x121))) (x89 (not (= x20 x103))) (x150 (not (= x52 x80))) (x91 (not (= x124 x103))) (x100 (not (= x33 x73))) (x112 (not (= x20 x117))) (x69 (not (= x124 x149))) (x120 (not (= x124 x60))) (x145 (not (= x114 x63))) (x53 (not (= x117 x114))) (x49 (not (= x73 x93))) (x110 (not (= x78 x114))) (x12 (not (= x73 x134)))) (or (and (and (and (or x153 x53) (and (or x15 x154) (and (or x47 x135) (or x115 x21)))) (or x107 x107)) (and (and (and (and (or x110 x17) (and (and (or x101 x25) (or x30 x102)) (or x48 x48))) (or x15 x154)) (and (and (or x47 x135) (and (and (and (or x95 x95) (or x157 x131)) (or x101 x25)) (or x76 x113))) (and (or x115 x21) (and (or x127 x54) (and (and (or x131 x157) (or x85 x85)) (or x102 x30)))))) (and (or x153 x53) (and (or x145 x145) (and (and (or x127 x54) (or x113 x76)) (or x17 x110)))))) (or (or (or (and (and (and (or x72 x144) (and (and (or x45 x119) (and (or x36 x152) (or x90 x82))) (or x96 x96))) (and (and (and (or x24 x128) (and (and (and (or x22 x22) (or x137 x91)) (or x136 x56)) (or x82 x90))) (and (and (and (or x69 x70) (and (or x120 x120) (or x91 x137))) (or x152 x36)) (or x62 x77))) (and (and (or x45 x119) (and (and (or x69 x70) (or x136 x56)) (or x57 x57))) (or x39 x141)))) (and (or x75 x75) (and (and (or x39 x141) (and (or x128 x24) (or x62 x77))) (or x72 x144)))) (and (and (and (and (and (and (or x35 x74) (and (and (or x68 x68) (or x148 x89)) (or x118 x1))) (or x64 x143)) (and (and (and (and (or x139 x139) (or x89 x148)) (or x11 x83)) (or x79 x86)) (or x28 x41))) (and (or x16 x19) (and (and (or x14 x14) (and (or x1 x118) (or x11 x83))) (or x4 x23)))) (and (or x112 x61) (and (and (or x4 x23) (and (or x79 x86) (or x35 x74))) (or x138 x138)))) (and (or x31 x31) (and (and (or x16 x19) (and (or x28 x41) (or x143 x64))) (or x112 x61))))) (and (and (and (or x65 x8) (and (or x26 x9) (and (or x10 x98) (or x51 x2)))) (or x97 x97)) (and (and (and (or x26 x9) (and (and (and (or x67 x43) (or x92 x7)) (or x156 x156)) (or x55 x13))) (and (and (or x98 x10) (and (and (or x7 x92) (and (or x38 x133) (or x111 x111))) (or x6 x44))) (and (or x2 x51) (and (or x150 x66) (and (and (or x142 x142) (or x38 x133)) (or x67 x43)))))) (and (or x65 x8) (and (and (and (or x6 x44) (or x150 x66)) (or x13 x55)) (or x40 x40)))))) (and (and (and (or x94 x99) (and (or x158 x158) (and (or x126 x151) (and (or x29 x129) (or x46 x108))))) (and (and (and (and (or x129 x29) (and (and (or x12 x32) (or x27 x27)) (or x109 x88))) (or x104 x5)) (and (and (or x108 x46) (and (and (or x32 x12) (or x159 x159)) (or x49 x50))) (or x105 x122))) (and (or x87 x100) (and (or x151 x126) (and (or x34 x34) (and (or x50 x49) (or x88 x109))))))) (and (and (and (or x100 x87) (and (or x104 x5) (or x122 x105))) (or x99 x94)) (or x18 x18))))))))
(assert (let ((x56 (x106 x124 x20)) (x57 (x106 x73 x20)) (x136 (x106 x114 x124)) (x120 (x106 x73 x124)) (x144 (x106 x80 x114)) (x82 (x106 x114 x20)) (x141 (x106 x124 x114)) (x39 (x106 x20 x114)) (x91 (x106 x80 x124)) (x96 (x106 x124 x73)) (x90 (x106 x124 x80)) (x152 (x106 x80 x80)) (x119 (x106 x114 x80)) (x24 (x106 x80 x73)) (x69 (x106 x20 x20)) (x77 (x106 x114 x73)) (x128 (x106 x20 x73)) (x36 (x106 x20 x80)) (x22 (x106 x124 x124)) (x75 (x106 x114 x114)) (x45 (x106 x73 x80)) (x70 (x106 x80 x20)) (x72 (x106 x73 x114)) (x62 (x106 x73 x73)) (x137 (x106 x20 x124))) (and (and (and (not (= x72 x75)) (and (and (and (and (not (= x39 x72)) (and (not (= x39 x144)) (and (and (not (= x141 x72)) (and (not (= x141 x144)) (not (= x39 x141)))) (not (= x141 x75))))) (not (= x75 x39))) (not (= x144 x72))) (not (= x75 x144)))) (and (and (and (and (and (and (and (and (not (= x96 x77)) (and (not (= x96 x62)) (and (not (= x96 x24)) (not (= x96 x128))))) (not (= x128 x24))) (not (= x62 x128))) (not (= x128 x77))) (not (= x24 x62))) (not (= x77 x24))) (not (= x77 x62))) (and (and (and (and (and (and (not (= x137 x136)) (and (and (and (and (and (not (= x22 x91)) (not (= x137 x22))) (not (= x22 x120))) (not (= x22 x136))) (not (= x91 x137))) (not (= x120 x137)))) (not (= x120 x91))) (not (= x136 x91))) (not (= x120 x136))) (and (not (= x82 x57)) (and (and (not (= x70 x57)) (and (not (= x69 x82)) (and (and (not (= x69 x70)) (and (not (= x56 x82)) (and (and (not (= x69 x56)) (not (= x56 x70))) (not (= x56 x57))))) (not (= x69 x57))))) (not (= x70 x82))))) (and (not (= x119 x45)) (and (and (not (= x45 x152)) (and (and (and (and (and (and (not (= x36 x90)) (not (= x90 x152))) (not (= x45 x90))) (not (= x90 x119))) (not (= x36 x152))) (not (= x36 x45))) (not (= x36 x119)))) (not (= x119 x152))))))) (and (and (not (= x75 x77)) (and (and (and (and (and (and (and (not (= x77 x136)) (and (not (= x119 x136)) (not (= x82 x136)))) (not (= x75 x136))) (not (= x119 x82))) (not (= x77 x82))) (not (= x75 x82))) (not (= x77 x119))) (not (= x119 x75)))) (and (and (and (and (and (and (and (not (= x24 x70)) (and (and (not (= x144 x91)) (and (and (not (= x70 x91)) (not (= x152 x91))) (not (= x91 x24)))) (not (= x70 x152)))) (not (= x70 x144))) (not (= x152 x24))) (not (= x152 x144))) (not (= x144 x24))) (and (and (not (= x96 x141)) (and (not (= x141 x90)) (and (and (and (and (and (not (= x22 x141)) (and (not (= x22 x96)) (and (not (= x22 x90)) (not (= x56 x22))))) (not (= x56 x90))) (not (= x96 x56))) (not (= x56 x141))) (not (= x90 x96))))) (and (and (not (= x36 x39)) (and (not (= x36 x128)) (and (not (= x69 x39)) (and (not (= x69 x128)) (and (and (and (and (not (= x69 x137)) (not (= x36 x137))) (not (= x137 x128))) (not (= x39 x137))) (not (= x36 x69))))))) (not (= x39 x128))))) (and (not (= x72 x62)) (and (and (not (= x45 x62)) (and (and (not (= x62 x57)) (and (not (= x57 x45)) (and (not (= x120 x72)) (and (and (not (= x120 x45)) (not (= x57 x120))) (not (= x120 x62)))))) (not (= x72 x57)))) (not (= x72 x45)))))))))
(assert (let ((x36 (x106 x80 x20)) (x24 (x106 x73 x80)) (x70 (x106 x20 x80)) (x128 (x106 x73 x20)) (x77 (x106 x73 x114)) (x136 (x106 x124 x114)) (x82 (x106 x20 x114)) (x152 (x106 x80 x80)) (x141 (x106 x114 x124)) (x90 (x106 x80 x124)) (x120 (x106 x124 x73)) (x45 (x106 x80 x73)) (x62 (x106 x73 x73)) (x39 (x106 x114 x20)) (x96 (x106 x73 x124)) (x72 (x106 x114 x73)) (x119 (x106 x80 x114)) (x22 (x106 x124 x124)) (x56 (x106 x20 x124)) (x57 (x106 x20 x73)) (x144 (x106 x114 x80)) (x91 (x106 x124 x80)) (x69 (x106 x20 x20)) (x137 (x106 x124 x20)) (x75 (x106 x114 x114))) (and (and (and (and (and (and (and (and (or (or (or (= x22 x80) (or (= x22 x20) (= x22 x124))) (= x73 x22)) (= x22 x114)) (or (= x137 x114) (or (= x73 x137) (or (= x137 x80) (or (= x137 x124) (= x20 x137)))))) (or (or (or (= x91 x80) (or (= x91 x20) (= x124 x91))) (= x73 x91)) (= x114 x91))) (or (or (or (= x80 x120) (or (= x120 x124) (= x120 x20))) (= x120 x73)) (= x120 x114))) (or (= x136 x114) (or (or (= x80 x136) (or (= x20 x136) (= x124 x136))) (= x136 x73)))) (and (or (= x82 x114) (or (= x73 x82) (or (or (= x82 x20) (= x82 x124)) (= x80 x82)))) (and (and (or (or (= x73 x70) (or (= x80 x70) (or (= x70 x20) (= x124 x70)))) (= x114 x70)) (and (or (= x114 x69) (or (= x73 x69) (or (= x80 x69) (or (= x69 x124) (= x69 x20))))) (or (= x56 x114) (or (= x56 x73) (or (= x56 x80) (or (= x56 x124) (= x20 x56))))))) (or (or (= x73 x57) (or (= x80 x57) (or (= x20 x57) (= x124 x57)))) (= x57 x114))))) (and (or (or (or (= x80 x119) (or (= x124 x119) (= x119 x20))) (= x119 x73)) (= x114 x119)) (and (or (= x45 x114) (or (= x73 x45) (or (= x45 x80) (or (= x20 x45) (= x124 x45))))) (and (or (or (= x73 x152) (or (or (= x152 x20) (= x124 x152)) (= x152 x80))) (= x152 x114)) (and (or (or (or (or (= x36 x20) (= x36 x124)) (= x80 x36)) (= x36 x73)) (= x114 x36)) (or (= x114 x90) (or (or (= x90 x80) (or (= x20 x90) (= x90 x124))) (= x73 x90)))))))) (and (and (and (and (or (or (= x73 x128) (or (= x80 x128) (or (= x128 x124) (= x20 x128)))) (= x128 x114)) (or (or (= x73 x96) (or (= x96 x80) (or (= x96 x124) (= x96 x20)))) (= x114 x96))) (or (= x24 x114) (or (= x24 x73) (or (or (= x24 x20) (= x124 x24)) (= x80 x24))))) (or (= x62 x114) (or (or (or (= x62 x20) (= x62 x124)) (= x80 x62)) (= x62 x73)))) (or (= x77 x114) (or (or (= x80 x77) (or (= x77 x124) (= x20 x77))) (= x73 x77))))) (and (and (and (or (or (or (= x80 x144) (or (= x20 x144) (= x124 x144))) (= x73 x144)) (= x114 x144)) (and (or (or (= x73 x141) (or (= x141 x80) (or (= x141 x124) (= x141 x20)))) (= x114 x141)) (or (or (= x73 x39) (or (or (= x39 x124) (= x20 x39)) (= x80 x39))) (= x114 x39)))) (or (= x72 x114) (or (= x73 x72) (or (= x72 x80) (or (= x20 x72) (= x124 x72)))))) (or (= x75 x114) (or (or (or (= x20 x75) (= x75 x124)) (= x75 x80)) (= x73 x75)))))))
(assert (let ((x136 (x106 x80 x124)) (x62 (x106 x114 x20)) (x77 (x106 x20 x114)) (x128 (x106 x114 x124)) (x68 (x106 x124 x20)) (x120 (x106 x20 x20)) (x119 (x106 x80 x73)) (x141 (x106 x114 x80)) (x75 (x106 x114 x114)) (x70 (x106 x20 x80)) (x57 (x106 x80 x80)) (x144 (x106 x114 x73)) (x45 (x106 x73 x80)) (x42 (x106 x124 x124)) (x39 (x106 x80 x114)) (x137 (x106 x20 x124)) (x93 (x106 x124 x73)) (x96 (x106 x73 x73)) (x81 (x106 x124 x114)) (x69 (x106 x80 x20)) (x36 (x106 x73 x20)) (x82 (x106 x73 x124)) (x72 (x106 x73 x114)) (x134 (x106 x124 x80)) (x152 (x106 x20 x73))) (let ((x149 (not (= x114 x62))) (x90 (not (= x93 x124))) (x132 (not (= x80 x119))) (x11 (not (= x80 x39))) (x89 (not (= x69 x80))) (x146 (not (= x20 x120))) (x24 (not (= x81 x124))) (x60 (not (= x152 x20))) (x103 (not (= x137 x20))) (x91 (not (= x68 x124))) (x118 (not (= x144 x114))) (x22 (not (= x42 x124))) (x148 (not (= x70 x20))) (x147 (not (= x114 x75))) (x125 (not (= x128 x114))) (x83 (not (= x73 x72))) (x3 (not (= x73 x82))) (x59 (not (= x77 x20))) (x58 (not (= x45 x73))) (x56 (not (= x134 x124))) (x139 (not (= x36 x73))) (x1 (not (= x73 x96))) (x71 (not (= x80 x136))) (x52 (not (= x57 x80))) (x121 (not (= x141 x114)))) (or (or (and (and (and (and (or x121 (not (= x39 x73))) (and (and (or (not (= x73 x57)) x52) (and (or x56 (not (= x136 x73))) (or x148 (not (= x73 x69))))) (or x58 (not (= x73 x119))))) (and (and (and (or x139 (not (= x152 x73))) (and (and (or x146 (not (= x73 x120))) (or (not (= x137 x73)) x91)) (or x89 (not (= x70 x73))))) (or (not (= x77 x73)) x149)) (and (or (not (= x81 x73)) x125) (and (and (or (not (= x73 x134)) x71) (and (or (not (= x73 x42)) x22) (or x103 (not (= x68 x73))))) (or (not (= x73 x93)) x3))))) (and (and (and (and (or x3 x90) (or x139 x60)) (or x58 x132)) (or x1 x1)) (or x83 x118))) (and (or x147 (not (= x73 x75))) (and (and (or x11 (not (= x73 x141))) (and (or (not (= x62 x73)) x59) (or x24 (not (= x73 x128))))) (or (not (= x144 x73)) x83)))) (or (and (and (and (and (or x121 x11) (and (and (or x52 x52) (and (or x71 x56) (or x89 x148))) (or x132 x58))) (and (and (or x125 (not (= x80 x81))) (and (and (or (not (= x80 x134)) x71) (and (or (not (= x68 x80)) x103) (or x22 (not (= x42 x80))))) (or (not (= x93 x80)) x3))) (and (or x149 (not (= x77 x80))) (and (or (not (= x80 x152)) x139) (and (or (not (= x80 x70)) x89) (and (or (not (= x137 x80)) x91) (or (not (= x120 x80)) x146))))))) (and (and (or (not (= x96 x80)) x1) (and (and (or (not (= x36 x80)) x60) (or (not (= x80 x82)) x90)) (or x132 (not (= x80 x45))))) (or (not (= x72 x80)) x118))) (and (or (not (= x75 x80)) x147) (and (and (or x11 (not (= x80 x141))) (and (or x59 (not (= x62 x80))) (or (not (= x128 x80)) x24))) (or (not (= x144 x80)) x83)))) (or (and (and (and (or (not (= x144 x124)) x83) (and (or x11 (not (= x141 x124))) (and (or x24 (not (= x124 x128))) (or (not (= x124 x62)) x59)))) (or (not (= x75 x124)) x147)) (and (and (and (or (not (= x39 x124)) x121) (and (and (and (or x148 (not (= x69 x124))) (or x56 (not (= x136 x124)))) (or x52 (not (= x124 x57)))) (or x58 (not (= x124 x119))))) (and (and (or x149 (not (= x77 x124))) (and (and (or (not (= x70 x124)) x89) (and (or x91 (not (= x137 x124))) (or x146 (not (= x120 x124))))) (or (not (= x124 x152)) x139))) (and (and (and (or x71 x56) (and (or x103 x91) (or x22 x22))) (or x90 x3)) (or x125 x24)))) (and (and (and (and (or x90 (not (= x82 x124))) (or x60 (not (= x36 x124)))) (or (not (= x45 x124)) x132)) (or (not (= x96 x124)) x1)) (or (not (= x124 x72)) x118)))) (and (and (and (and (and (and (or x52 (not (= x20 x57))) (and (or (not (= x136 x20)) x56) (or x148 (not (= x69 x20))))) (or (not (= x119 x20)) x58)) (or x121 (not (= x20 x39)))) (and (and (or (not (= x20 x81)) x125) (and (and (and (or x22 (not (= x42 x20))) (or x103 (not (= x68 x20)))) (or x71 (not (= x20 x134)))) (or x3 (not (= x20 x93))))) (and (and (or x60 x139) (and (and (or x91 x103) (or x146 x146)) (or x148 x89))) (or x149 x59)))) (and (or (not (= x72 x20)) x118) (and (and (and (or x60 (not (= x20 x36))) (or x90 (not (= x20 x82)))) (or (not (= x20 x45)) x132)) (or (not (= x20 x96)) x1)))) (and (or x147 (not (= x20 x75))) (and (or (not (= x144 x20)) x83) (and (or (not (= x20 x141)) x11) (and (or x59 (not (= x20 x62))) (or x24 (not (= x128 x20))))))))))) (and (and (and (and (and (and (or (not (= x82 x114)) x90) (or x60 (not (= x36 x114)))) (or (not (= x114 x45)) x132)) (or x1 (not (= x114 x96)))) (or x118 (not (= x114 x72)))) (and (and (and (or x58 (not (= x119 x114))) (and (or (not (= x114 x57)) x52) (and (or x148 (not (= x69 x114))) (or x56 (not (= x136 x114)))))) (or x121 (not (= x114 x39)))) (and (and (or x149 (not (= x114 x77))) (and (or (not (= x152 x114)) x139) (and (and (or (not (= x137 x114)) x91) (or (not (= x114 x120)) x146)) (or (not (= x70 x114)) x89)))) (and (or (not (= x81 x114)) x125) (and (or x3 (not (= x93 x114))) (and (or x71 (not (= x114 x134))) (and (or x22 (not (= x114 x42))) (or x103 (not (= x114 x68)))))))))) (and (or x147 x147) (and (or x83 x118) (and (or x11 x121) (and (or x149 x59) (or x24 x125))))))))))
(assert (and (and (and (not (= x80 (x106 x80 x80))) (and (not (= (x106 x124 x124) x124)) (not (= x20 (x106 x20 x20))))) (not (= (x106 x73 x73) x73))) (not (= x114 (x106 x114 x114)))))
(assert (let ((x22 (= x124 (x106 x124 x124))) (x39 (= x114 (x106 x80 x114))) (x24 (= x114 (x106 x124 x114))) (x82 (= x124 (x106 x73 x124))) (x119 (= x73 (x106 x80 x73))) (x69 (= x20 (x106 x80 x20))) (x141 (= (x106 x114 x80) x80)) (x70 (= (x106 x20 x80) x80)) (x62 (= (x106 x114 x20) x20)) (x136 (= x124 (x106 x80 x124))) (x144 (= x73 (x106 x114 x73))) (x36 (= x20 (x106 x73 x20))) (x56 (= (x106 x124 x80) x80)) (x91 (= x20 (x106 x124 x20))) (x96 (= (x106 x73 x73) x73)) (x77 (= (x106 x20 x114) x114)) (x45 (= x80 (x106 x73 x80))) (x90 (= (x106 x124 x73) x73)) (x152 (= x73 (x106 x20 x73))) (x137 (= x124 (x106 x20 x124))) (x57 (= x80 (x106 x80 x80))) (x75 (= x114 (x106 x114 x114))) (x128 (= (x106 x114 x124) x124)) (x120 (= (x106 x20 x20) x20)) (x72 (= (x106 x73 x114) x114))) (or (or (or (or (and x141 x39) (or (or (or (and x56 x136) (and x70 x69)) (and x57 x57)) (and x119 x45))) (or (or (and x62 x77) (or (and x36 x152) (or (or (and x120 x120) (and x91 x137)) (and x69 x70)))) (or (and x24 x128) (or (and x82 x90) (or (and x136 x56) (or (and x22 x22) (and x137 x91))))))) (or (or (or (or (and x82 x90) (and x152 x36)) (and x119 x45)) (and x96 x96)) (and x72 x144))) (or (and x75 x75) (or (and x72 x144) (or (and x39 x141) (or (and x62 x77) (and x128 x24))))))))
(assert (let ((x45 (x106 x73 x80)) (x24 (x106 x124 x114)) (x119 (x106 x80 x73)) (x82 (x106 x73 x124)) (x152 (x106 x20 x73)) (x62 (x106 x114 x20)) (x128 (x106 x114 x124)) (x70 (x106 x20 x80)) (x36 (x106 x73 x20)) (x56 (x106 x124 x80)) (x39 (x106 x80 x114)) (x75 (= x114 (x106 x114 x114))) (x96 (= x73 (x106 x73 x73))) (x137 (x106 x20 x124)) (x136 (x106 x80 x124)) (x141 (x106 x114 x80)) (x77 (x106 x20 x114)) (x144 (x106 x114 x73)) (x22 (= (x106 x124 x124) x124)) (x90 (x106 x124 x73)) (x69 (x106 x80 x20)) (x72 (x106 x73 x114)) (x57 (= x80 (x106 x80 x80))) (x91 (x106 x124 x20)) (x120 (= (x106 x20 x20) x20))) (or (or (or (or (and x96 x96) (or (or (and (= x90 x73) (= x73 x82)) (and (= x36 x73) (= x152 x73))) (and (= x73 x119) (= x45 x73)))) (and (= x73 x72) (= x73 x144))) (or (or (and (= x80 x141) (= x80 x39)) (or (and (= x119 x80) (= x80 x45)) (or (or (and (= x70 x80) (= x80 x69)) (and (= x56 x80) (= x136 x80))) (and x57 x57)))) (or (or (and (= x24 x124) (= x128 x124)) (or (and (= x124 x90) (= x124 x82)) (or (or (and x22 x22) (and (= x137 x124) (= x91 x124))) (and (= x56 x124) (= x136 x124))))) (or (and (= x20 x62) (= x77 x20)) (or (or (or (and (= x137 x20) (= x20 x91)) (and x120 x120)) (and (= x70 x20) (= x20 x69))) (and (= x36 x20) (= x20 x152))))))) (or (or (or (or (and (= x77 x114) (= x62 x114)) (and (= x24 x114) (= x114 x128))) (and (= x141 x114) (= x114 x39))) (and (= x144 x114) (= x114 x72))) (and x75 x75)))))
(assert (let ((x39 (x106 x20 x114)) (x68 (x106 x114 x20)) (x67 (x106 x114 x73)) (x122 (x106 x114 x114)) (x136 (x106 x124 x73)) (x56 (x106 x124 x114)) (x121 (x106 x80 x80)) (x57 (x106 x80 x124)) (x91 (x106 x124 x20)) (x77 (x106 x20 x80)) (x137 (x106 x124 x124)) (x141 (x106 x20 x73)) (x120 (x106 x124 x80)) (x82 (x106 x73 x124)) (x38 (x106 x73 x73)) (x133 (x106 x73 x114)) (x147 (x106 x73 x80)) (x14 (x106 x114 x80)) (x1 (x106 x80 x114)) (x70 (x106 x20 x124)) (x90 (x106 x114 x124)) (x42 (x106 x73 x20)) (x62 (x106 x20 x20)) (x132 (x106 x80 x73)) (x75 (x106 x80 x20))) (let ((x81 (= x73 x62)) (x32 (= x114 x132)) (x23 (= x73 x121)) (x146 (= x114 x91)) (x96 (= x91 x124)) (x47 (= x90 x114)) (x85 (= x39 x80)) (x59 (= x124 x77)) (x78 (= x57 x80)) (x28 (= x42 x124)) (x127 (= x39 x73)) (x94 (= x20 x122)) (x129 (= x124 x133)) (x101 (= x1 x80)) (x84 (= x82 x20)) (x4 (= x73 x77)) (x9 (= x73 x132)) (x76 (= x73 x14)) (x27 (= x114 x38)) (x25 (= x80 x133)) (x43 (= x20 x38)) (x83 (= x20 x121)) (x12 (= x114 x141)) (x17 (= x73 x1)) (x11 (= x77 x20)) (x7 (= x132 x20)) (x105 (= x20 x67)) (x104 (= x20 x39)) (x150 (= x141 x80)) (x72 (= x62 x20)) (x16 (= x136 x124)) (x46 (= x1 x124)) (x71 (= x80 x62)) (x2 (= x141 x73)) (x98 (= x42 x73)) (x54 (= x56 x73)) (x138 (= x75 x114)) (x41 (= x124 x147)) (x139 (= x120 x124)) (x158 (= x20 x14)) (x61 (= x132 x124)) (x100 (= x133 x20)) (x22 (= x124 x137)) (x126 (= x68 x20)) (x53 (= x133 x114)) (x5 (= x56 x20)) (x29 (= x124 x122)) (x89 (= x124 x57)) (x86 (= x73 x75)) (x135 (= x68 x114)) (x140 (= x77 x114)) (x87 (= x20 x1)) (x33 (= x80 x120)) (x143 (= x121 x114)) (x6 (= x80 x147)) (x55 (= x38 x80)) (x26 (= x73 x38)) (x119 (= x70 x124)) (x51 (= x73 x136)) (x13 (= x132 x80)) (x128 (= x62 x124)) (x88 (= x14 x124)) (x37 (= x77 x80)) (x151 (= x90 x20)) (x60 (= x75 x124)) (x134 (= x91 x80)) (x112 (= x124 x38)) (x44 (= x42 x80)) (x36 (= x137 x80)) (x154 (= x39 x114)) (x117 (= x120 x114)) (x145 (= x73 x122)) (x152 (= x73 x137)) (x66 (= x136 x80)) (x49 (= x124 x90)) (x40 (= x82 x73)) (x18 (= x80 x68)) (x109 (= x67 x124)) (x144 (= x20 x91)) (x19 (= x124 x141)) (x31 (= x42 x20)) (x10 (= x73 x147)) (x103 (= x80 x70)) (x156 (= x80 x82)) (x48 (= x68 x73)) (x97 (= x147 x114)) (x45 (= x114 x137)) (x50 (= x124 x68)) (x65 (= x114 x82)) (x131 (= x67 x80)) (x153 (= x114 x1)) (x102 (= x73 x90)) (x58 (= x20 x75)) (x157 (= x80 x56)) (x52 (= x57 x20)) (x149 (= x121 x124)) (x15 (= x56 x114)) (x118 (= x120 x20)) (x74 (= x57 x73)) (x69 (= x20 x137)) (x108 (= x39 x124)) (x79 (= x120 x73)) (x125 (= x114 x70)) (x34 (= x124 x56)) (x35 (= x121 x80)) (x8 (= x114 x42)) (x111 (= x20 x147)) (x142 (= x136 x20)) (x113 (= x67 x73)) (x107 (= x114 x122)) (x115 (= x114 x67)) (x30 (= x122 x80)) (x93 (= x73 x70)) (x99 (= x80 x90)) (x95 (= x80 x14)) (x110 (= x73 x133)) (x24 (= x20 x70)) (x130 (= x75 x80)) (x148 (= x62 x114)) (x21 (= x114 x14)) (x63 (= x57 x114)) (x64 (= x124 x82)) (x159 (= x136 x114)) (x92 (= x141 x20)) (x3 (= x91 x73))) (and (and (and (and (and (and (and (or (or (or x74 (or x93 x152)) x40) x102) (or (or (or x79 (or x3 x152)) x51) x54)) (and (and (or (or x66 (or (or x134 x36) x33)) x157) (or (or x156 (or (or x36 x103) x78)) x99)) (and (and (or x5 (or x142 (or (or x69 x144) x118))) (or (or (or (or x69 x24) x52) x84) x151)) (and (or (or x64 (or x89 (or x119 x22))) x49) (or (or x16 (or (or x96 x22) x139)) x34))))) (and (or (or (or x117 (or x45 x146)) x159) x15) (or (or x65 (or (or x125 x45) x63)) x47))) (and (and (or (or x12 (or x140 (or x148 x125))) x154) (or (or (or (or x146 x148) x138) x8) x135)) (and (and (and (or (or x44 (or (or x71 x134) x130)) x18) (or (or (or (or x71 x103) x37) x150) x85)) (and (and (or (or (or x60 (or x96 x128)) x28) x50) (or (or (or x59 (or x119 x128)) x19) x108)) (and (or x104 (or x92 (or x11 (or x72 x24)))) (or x126 (or (or x58 (or x72 x144)) x31))))) (and (or x127 (or x2 (or (or x93 x81) x4))) (or x48 (or (or (or x81 x3) x86) x98)))))) (and (and (or (or (or x143 (or x140 x117)) x97) x21) (or (or x32 (or (or x138 x63) x143)) x153)) (and (and (and (and (or (or x111 (or (or x118 x11) x83)) x158) (or (or (or x83 (or x52 x58)) x7) x87)) (and (or x88 (or (or (or x139 x59) x149) x41)) (or (or (or (or x60 x89) x149) x61) x46))) (and (or x101 (or (or (or x130 x78) x35) x13)) (or (or x6 (or (or x33 x37) x35)) x95))) (and (or (or (or (or x79 x4) x23) x10) x76) (or (or (or x23 (or x74 x86)) x9) x17))))) (and (and (or (or (or x97 (or x8 x65)) x27) x53) (or x115 (or x27 (or (or x159 x12) x32)))) (and (and (and (or x25 (or x55 (or x6 (or x44 x156)))) (or (or (or x13 (or x66 x150)) x55) x131)) (and (and (or x100 (or x43 (or (or x84 x31) x111))) (or (or x43 (or x7 (or x92 x142))) x105)) (and (or x129 (or x112 (or x41 (or x64 x28)))) (or x109 (or (or x61 (or x16 x19)) x112))))) (and (or (or (or x10 (or x98 x40)) x26) x110) (or x113 (or x26 (or x9 (or x51 x2)))))))) (and (and (or x107 (or (or (or x154 x15) x153) x53)) (or x107 (or x115 (or (or x47 x135) x21)))) (and (and (or (or (or (or x102 x48) x76) x113) x145) (or x145 (or x110 (or (or x54 x127) x17)))) (and (and (or x30 (or (or (or x85 x157) x101) x25)) (or (or (or (or x18 x99) x95) x131) x30)) (and (and (or x29 (or (or (or x34 x108) x46) x129)) (or x29 (or (or x88 (or x50 x49)) x109))) (and (or (or (or (or x104 x5) x87) x100) x94) (or (or x105 (or x158 (or x151 x126))) x94))))))))))
(assert (let ((x22 (x106 x124 x124)) (x137 (x106 x20 x20)) (x120 (x106 x73 x73)) (x91 (x106 x80 x80)) (x136 (x106 x114 x114))) (and (or (or (or (or (= (x106 x124 x136) x124) (= x20 (x106 x20 x136))) (= x80 (x106 x80 x136))) (= x73 (x106 x73 x136))) (= (x106 x114 x136) x114)) (and (or (or (= x73 (x106 x73 x120)) (or (or (= (x106 x20 x120) x20) (= x124 (x106 x124 x120))) (= (x106 x80 x120) x80))) (= (x106 x114 x120) x114)) (and (and (or (or (= x73 (x106 x73 x22)) (or (= x80 (x106 x80 x22)) (or (= (x106 x124 x22) x124) (= x20 (x106 x20 x22))))) (= (x106 x114 x22) x114)) (or (= x114 (x106 x114 x137)) (or (= (x106 x73 x137) x73) (or (= x80 (x106 x80 x137)) (or (= x124 (x106 x124 x137)) (= (x106 x20 x137) x20)))))) (or (or (= (x106 x73 x91) x73) (or (= (x106 x80 x91) x80) (or (= x124 (x106 x124 x91)) (= (x106 x20 x91) x20)))) (= (x106 x114 x91) x114)))))))
(assert (not (and (and (= x114 (x106 x114 x73)) (and (and (= x73 (x106 x114 x20)) (and (and (and (and (= (x106 x73 x80) x73) (and (and (= x114 (x106 x73 x124)) (and (and (= (x106 x80 x73) x20) (and (= (x106 x80 x80) x124) (and (and (and (and (= x73 (x106 x20 x73)) (and (= (x106 x20 x80) x20) (and (and (and (and (= x80 (x106 x124 x73)) (and (= x114 (x106 x124 x80)) (and (= x124 (x106 x124 x20)) (= x73 (x106 x124 x124))))) (= (x106 x124 x114) x20)) (= (x106 x20 x124) x124)) (= x80 (x106 x20 x20))))) (= x114 (x106 x20 x114))) (= x80 (x106 x80 x124))) (= x114 (x106 x80 x20))))) (= x73 (x106 x80 x114)))) (= (x106 x73 x20) x20))) (= x124 (x106 x73 x73))) (= (x106 x73 x114) x80)) (= (x106 x114 x124) x20))) (= (x106 x114 x80) x80))) (= x124 (x106 x114 x114)))))
(assert (let ((x91 (x106 x124 x80)) (x152 (x106 x80 x80)) (x24 (x106 x73 x80)) (x36 (x106 x80 x20)) (x141 (x106 x114 x124)) (x70 (x106 x20 x80)) (x144 (x106 x114 x80)) (x56 (x106 x20 x124)) (x72 (x106 x114 x73)) (x77 (x106 x73 x114)) (x119 (x106 x80 x114)) (x120 (x106 x124 x73)) (x57 (x106 x20 x73)) (x69 (x106 x20 x20)) (x45 (x106 x80 x73)) (x39 (x106 x114 x20)) (x82 (x106 x20 x114)) (x137 (x106 x124 x20)) (x62 (x106 x73 x73)) (x22 (x106 x124 x124)) (x128 (x106 x73 x20)) (x136 (x106 x124 x114)) (x96 (x106 x73 x124)) (x75 (x106 x114 x114)) (x90 (x106 x80 x124))) (or (and (not (= x114 (x106 x75 x75))) (and (not (= x73 (x106 x72 x72))) (and (and (not (= x124 (x106 x141 x141))) (not (= (x106 x39 x39) x20))) (not (= (x106 x144 x144) x80))))) (or (or (or (and (and (not (= x73 (x106 x57 x57))) (and (not (= (x106 x70 x70) x80)) (and (not (= x124 (x106 x56 x56))) (not (= (x106 x69 x69) x20))))) (not (= (x106 x82 x82) x114))) (and (and (not (= (x106 x120 x120) x73)) (and (not (= x80 (x106 x91 x91))) (and (not (= x20 (x106 x137 x137))) (not (= x124 (x106 x22 x22)))))) (not (= x114 (x106 x136 x136))))) (and (and (not (= x73 (x106 x45 x45))) (and (and (not (= x124 (x106 x90 x90))) (not (= (x106 x36 x36) x20))) (not (= (x106 x152 x152) x80)))) (not (= x114 (x106 x119 x119))))) (and (and (and (not (= x80 (x106 x24 x24))) (and (not (= (x106 x96 x96) x124)) (not (= x20 (x106 x128 x128))))) (not (= x73 (x106 x62 x62)))) (not (= x114 (x106 x77 x77))))))))
(assert (and (not (= x114 x73)) (and (and (and (not (= x20 x114)) (and (and (and (not (= x124 x114)) (and (and (not (= x124 x80)) (not (= x124 x20))) (not (= x124 x73)))) (not (= x80 x20))) (not (= x73 x20)))) (not (= x73 x80))) (not (= x114 x80)))))
(assert (let ((x128 (not (= (x106 x114 x124) x114))) (x39 (not (= x80 (x106 x80 x114)))) (x70 (not (= x20 (x106 x20 x80)))) (x136 (not (= x80 (x106 x80 x124)))) (x96 (not (= x73 (x106 x73 x73)))) (x141 (not (= (x106 x114 x80) x114))) (x82 (not (= x73 (x106 x73 x124)))) (x137 (not (= (x106 x20 x124) x20))) (x75 (not (= (x106 x114 x114) x114))) (x152 (not (= (x106 x20 x73) x20))) (x36 (not (= (x106 x73 x20) x73))) (x91 (not (= x124 (x106 x124 x20)))) (x56 (not (= x124 (x106 x124 x80)))) (x24 (not (= (x106 x124 x114) x124))) (x62 (not (= (x106 x114 x20) x114))) (x22 (not (= (x106 x124 x124) x124))) (x144 (not (= (x106 x114 x73) x114))) (x77 (not (= (x106 x20 x114) x20))) (x45 (not (= x73 (x106 x73 x80)))) (x72 (not (= x73 (x106 x73 x114)))) (x120 (not (= (x106 x20 x20) x20))) (x119 (not (= x80 (x106 x80 x73)))) (x57 (not (= x80 (x106 x80 x80)))) (x90 (not (= x124 (x106 x124 x73)))) (x69 (not (= x80 (x106 x80 x20))))) (and (and (or x75 x75) (and (or x144 x72) (and (and (or x24 x128) (or x77 x62)) (or x141 x39)))) (and (and (and (or x96 x96) (and (or x45 x119) (and (or x90 x82) (or x36 x152)))) (or x72 x144)) (and (and (and (and (or x57 x57) (and (or x70 x69) (or x56 x136))) (or x45 x119)) (or x39 x141)) (and (and (or x24 x128) (and (or x82 x90) (and (or x136 x56) (and (or x22 x22) (or x91 x137))))) (and (and (or x152 x36) (and (and (or x137 x91) (or x120 x120)) (or x69 x70))) (or x62 x77))))))))
(assert (or (or (and (not (= (x106 x73 (x106 x73 x114)) x114)) (and (and (not (= x80 (x106 x73 (x106 x73 x80)))) (and (not (= x124 (x106 x73 (x106 x73 x124)))) (not (= x20 (x106 x73 (x106 x73 x20)))))) (not (= (x106 x73 (x106 x73 x73)) x73)))) (or (or (and (not (= (x106 x20 (x106 x20 x114)) x114)) (and (not (= x73 (x106 x20 (x106 x20 x73)))) (and (not (= x80 (x106 x20 (x106 x20 x80)))) (and (not (= x124 (x106 x20 (x106 x20 x124)))) (not (= x20 (x106 x20 (x106 x20 x20)))))))) (and (not (= (x106 x124 (x106 x124 x114)) x114)) (and (not (= x73 (x106 x124 (x106 x124 x73)))) (and (and (not (= x124 (x106 x124 (x106 x124 x124)))) (not (= (x106 x124 (x106 x124 x20)) x20))) (not (= (x106 x124 (x106 x124 x80)) x80)))))) (and (not (= x114 (x106 x80 (x106 x80 x114)))) (and (not (= (x106 x80 (x106 x80 x73)) x73)) (and (not (= x80 (x106 x80 (x106 x80 x80)))) (and (not (= x20 (x106 x80 (x106 x80 x20)))) (not (= (x106 x80 (x106 x80 x124)) x124)))))))) (and (not (= x114 (x106 x114 (x106 x114 x114)))) (and (and (and (not (= (x106 x114 (x106 x114 x20)) x20)) (not (= (x106 x114 (x106 x114 x124)) x124))) (not (= (x106 x114 (x106 x114 x80)) x80))) (not (= (x106 x114 (x106 x114 x73)) x73))))))
(assert (and (and (and (= (x106 x124 x114) x20) (= (x106 x73 x73) x124)) (= x80 (x106 x124 x73))) (= x114 (x106 x124 x80))))
(check-sat)
(exit)
